symmetry_generate
kpoints_mp_grid 6 6 6 

%BLOCK LATTICE_CART
 1.706477854138947    0.000000000000000    4.826648250425272
-0.853238927069474    1.477853172679884    4.826648250425272
-0.853238927069474    -1.477853172679884    4.826648250425272
%ENDBLOCK LATTICE_CART

%block positions_frac
Ni  0.00  0.00  0.00  spin=-2
Ni  0.50  0.50  0.50  spin=+2
O   0.25  0.25  0.25
O   0.75  0.75  0.75
%endblock positions_frac
