%block lattice_cart
2.83000000000000        2.83000000000000        0.00000000000000
2.83000000000000        0.00000000000000        2.83000000000000
0.00000000000000        2.83000000000000        2.83000000000000
%endblock lattice_cart

%block positions_frac
Ga  0.000000000000000  0.000000000000000  0.000000000000000
As  0.250000000000000  0.250000000000000  0.250000000000000
%endblock positions_frac
